Route #1: 31 46 35
Route #2: 15 22 41 20
Route #3: 1 70 54
Route #4: 92 9 86
Route #5: 68 90 84 66
Route #6: 76 55 16 69
Route #7: 74 13 4
Route #8: 58 12 5
Route #9: 18 10 39
Route #10: 28 42 78 65 25
Route #11: 57 72 36 29 43 45 2 7
Route #12: 87 37 6 49 14
Route #13: 63 77 3
Route #14: 44 88 67 40
Route #15: 82 60 59
Route #16: 17 8
Route #17: 38 47 26 48 96 64 34
Route #18: 21 56 94 80
Route #19: 89 98 99 62 71
Route #20: 23 61 100
Route #21: 19 97 27
Route #22: 81 51 83
Route #23: 50 91 52
Route #24: 30 85 11 79
Route #25: 93 75
Route #26: 24 95 73 53 33 32
Cost 27591
Time 12.3409
